p cnf 445 1517
a 2 3 4 5 9 14 16 18 19 20 23 25 27 28 30 32 34 35 37 39 41 43 45 47 49 52 53 60 62 66 70 72 74 78 85 86 87 88 92 96 98 102 104 109 110 111 115 119 121 125 127 132 133 134 138 142 144 148 150 155 156 157 159 0
e 1 6 7 8 10 11 12 13 15 17 21 22 24 26 29 31 33 36 38 40 42 44 46 48 50 51 54 55 56 57 58 59 61 63 64 65 67 68 69 71 73 75 76 77 79 80 81 82 83 84 89 90 91 93 94 95 97 99 100 101 103 105 106 107 108 112 113 114 116 117 118 120 122 123 124 126 128 129 130 131 135 136 137 139 140 141 143 145 146 147 149 151 152 153 154 158 160 161 162 163 164 165 166 167 168 169 170 171 172 173 174 175 176 177 178 179 180 181 182 183 184 185 186 187 188 189 190 191 192 193 194 195 196 197 198 199 200 201 202 203 204 205 206 207 208 209 210 211 212 213 214 215 216 217 218 219 220 221 222 223 224 225 226 227 228 229 230 231 232 233 234 235 236 237 238 239 240 241 242 243 244 245 246 247 248 249 250 251 252 253 254 255 256 257 258 259 260 261 262 263 264 265 266 267 268 269 270 271 272 273 274 275 276 277 278 279 280 281 282 283 284 285 286 287 288 289 290 291 292 293 294 295 296 297 298 299 300 301 302 303 304 305 306 307 308 309 310 311 312 313 314 315 316 317 318 319 320 321 322 323 324 325 326 327 328 329 330 331 332 333 334 335 336 337 338 339 340 341 342 343 344 345 346 347 348 349 350 351 352 353 354 355 356 357 358 359 360 361 362 363 364 365 366 367 368 369 370 371 372 373 374 375 376 377 378 379 380 381 382 383 384 385 386 387 388 389 390 391 392 393 394 395 396 397 398 399 400 401 402 403 404 405 406 407 408 409 410 411 412 413 414 415 416 417 418 419 420 421 422 423 424 425 426 427 428 429 430 431 432 433 434 435 436 437 438 439 440 441 442 443 444 445 0
1 0
4 -6 0
5 -6 0
-4 -5 6 0
4 -7 0
-5 -7 0
-4 5 7 0
4 8 0
-6 8 0
-7 8 0
-4 6 7 -8 0
-9 10 0
9 10 0
3 -11 0
8 -11 0
10 -11 0
-3 -8 -10 11 0
-3 -12 0
8 -12 0
3 -8 12 0
-11 13 0
-12 13 0
11 12 -13 0
-14 15 0
14 15 0
-16 17 0
16 17 0
19 -21 0
-20 -21 0
-19 20 21 0
19 22 0
-21 22 0
-19 21 -22 0
-23 24 0
23 24 0
24 -26 0
25 -26 0
-24 -25 26 0
-28 29 0
28 29 0
29 -31 0
-30 -31 0
-29 30 31 0
29 -33 0
30 -33 0
32 -33 0
-29 -30 -32 33 0
29 -36 0
30 -36 0
-32 -36 0
34 -36 0
35 -36 0
-29 -30 32 -34 -35 36 0
29 -38 0
30 -38 0
-32 -38 0
34 -38 0
-35 -38 0
-37 -38 0
-29 -30 32 -34 35 37 38 0
29 -40 0
30 -40 0
-32 -40 0
-34 -40 0
-39 -40 0
-29 -30 32 34 39 40 0
29 -42 0
30 -42 0
-32 -42 0
-34 -42 0
39 -42 0
41 -42 0
-29 -30 32 34 -39 -41 42 0
29 -44 0
30 -44 0
-32 -44 0
34 -44 0
-35 -44 0
37 -44 0
43 -44 0
-29 -30 32 -34 35 -37 -43 44 0
29 -46 0
30 -46 0
-32 -46 0
34 -46 0
-35 -46 0
37 -46 0
-43 -46 0
45 -46 0
-29 -30 32 -34 35 -37 43 -45 46 0
-47 48 0
47 48 0
29 -50 0
30 -50 0
-32 -50 0
-34 -50 0
39 -50 0
-41 -50 0
48 -50 0
49 -50 0
-29 -30 32 34 -39 41 -48 -49 50 0
29 -51 0
30 -51 0
-32 -51 0
-34 -51 0
39 -51 0
-41 -51 0
48 -51 0
-49 -51 0
-29 -30 32 34 -39 41 -48 49 51 0
52 -54 0
53 -54 0
-52 -53 54 0
52 -55 0
-53 -55 0
-52 53 55 0
52 56 0
-54 56 0
-55 56 0
-52 54 55 -56 0
29 -57 0
30 -57 0
-32 -57 0
34 -57 0
-35 -57 0
37 -57 0
-43 -57 0
-45 -57 0
56 -57 0
-29 -30 32 -34 35 -37 43 45 -56 57 0
-31 58 0
-33 58 0
-36 58 0
-38 58 0
-40 58 0
-42 58 0
-44 58 0
-46 58 0
-50 58 0
-51 58 0
-57 58 0
31 33 36 38 40 42 44 46 50 51 57 -58 0
24 -59 0
-25 -59 0
-27 -59 0
58 -59 0
-24 25 27 -58 59 0
24 -61 0
-25 -61 0
27 -61 0
-60 -61 0
-24 25 -27 60 61 0
24 -63 0
-25 -63 0
27 -63 0
60 -63 0
-62 -63 0
-24 25 -27 -60 62 63 0
24 -64 0
-25 -64 0
27 -64 0
60 -64 0
62 -64 0
-24 25 -27 -60 -62 64 0
-59 65 0
-61 65 0
-63 65 0
-64 65 0
59 61 63 64 -65 0
65 -67 0
66 -67 0
-65 -66 67 0
65 -68 0
-66 -68 0
-65 66 68 0
-26 69 0
-67 69 0
-68 69 0
26 67 68 -69 0
-70 71 0
70 71 0
18 -73 0
22 -73 0
69 -73 0
71 -73 0
72 -73 0
-18 -22 -69 -71 -72 73 0
-74 75 0
74 75 0
18 -76 0
22 -76 0
69 -76 0
71 -76 0
-72 -76 0
75 -76 0
-18 -22 -69 -71 72 -75 76 0
-73 77 0
-76 77 0
73 76 -77 0
77 -79 0
78 -79 0
-77 -78 79 0
77 -80 0
-78 -80 0
-77 78 80 0
18 81 0
-79 81 0
-80 81 0
-18 79 80 -81 0
2 -82 0
13 -82 0
15 -82 0
17 -82 0
81 -82 0
-2 -13 -15 -17 -81 82 0
-2 -83 0
13 -83 0
15 -83 0
17 -83 0
2 -13 -15 -17 83 0
-82 84 0
-83 84 0
82 83 -84 0
87 -89 0
88 -89 0
-87 -88 89 0
87 -90 0
-88 -90 0
-87 88 90 0
-89 91 0
-90 91 0
89 90 -91 0
91 -93 0
92 -93 0
-91 -92 93 0
91 -94 0
-92 -94 0
-91 92 94 0
-93 95 0
-94 95 0
93 94 -95 0
95 -97 0
-96 -97 0
-95 96 97 0
95 -99 0
96 -99 0
98 -99 0
-95 -96 -98 99 0
95 -100 0
96 -100 0
-98 -100 0
-95 -96 98 100 0
87 101 0
-97 101 0
-99 101 0
-100 101 0
-87 97 99 100 -101 0
85 -103 0
86 -103 0
101 -103 0
102 -103 0
-85 -86 -101 -102 103 0
85 -105 0
-86 -105 0
104 -105 0
-85 86 -104 105 0
85 -106 0
86 -106 0
101 -106 0
-102 -106 0
-85 -86 -101 102 106 0
85 -107 0
-86 -107 0
-104 -107 0
-85 86 104 107 0
-106 108 0
-107 108 0
106 107 -108 0
110 -112 0
111 -112 0
-110 -111 112 0
110 -113 0
-111 -113 0
-110 111 113 0
-112 114 0
-113 114 0
112 113 -114 0
114 -116 0
115 -116 0
-114 -115 116 0
114 -117 0
-115 -117 0
-114 115 117 0
-116 118 0
-117 118 0
116 117 -118 0
118 -120 0
-119 -120 0
-118 119 120 0
118 -122 0
119 -122 0
121 -122 0
-118 -119 -121 122 0
118 -123 0
119 -123 0
-121 -123 0
-118 -119 121 123 0
110 124 0
-120 124 0
-122 124 0
-123 124 0
-110 120 122 123 -124 0
108 -126 0
109 -126 0
124 -126 0
125 -126 0
-108 -109 -124 -125 126 0
108 -128 0
-109 -128 0
127 -128 0
-108 109 -127 128 0
108 -129 0
109 -129 0
124 -129 0
-125 -129 0
-108 -109 -124 125 129 0
108 -130 0
-109 -130 0
-127 -130 0
-108 109 127 130 0
-129 131 0
-130 131 0
129 130 -131 0
133 -135 0
134 -135 0
-133 -134 135 0
133 -136 0
-134 -136 0
-133 134 136 0
-135 137 0
-136 137 0
135 136 -137 0
137 -139 0
138 -139 0
-137 -138 139 0
137 -140 0
-138 -140 0
-137 138 140 0
-139 141 0
-140 141 0
139 140 -141 0
141 -143 0
-142 -143 0
-141 142 143 0
141 -145 0
142 -145 0
144 -145 0
-141 -142 -144 145 0
141 -146 0
142 -146 0
-144 -146 0
-141 -142 144 146 0
133 147 0
-143 147 0
-145 147 0
-146 147 0
-133 143 145 146 -147 0
131 -149 0
132 -149 0
147 -149 0
148 -149 0
-131 -132 -147 -148 149 0
131 -151 0
-132 -151 0
150 -151 0
-131 132 -150 151 0
131 -152 0
132 -152 0
147 -152 0
-148 -152 0
-131 -132 -147 148 152 0
131 -153 0
-132 -153 0
-150 -153 0
-131 132 150 153 0
-152 154 0
-153 154 0
152 153 -154 0
154 -158 0
155 -158 0
-156 -158 0
157 -158 0
-154 -155 156 -157 158 0
154 -160 0
-155 -160 0
159 -160 0
-154 155 -159 160 0
154 -161 0
-155 -161 0
-159 -161 0
-154 155 159 161 0
154 -162 0
155 -162 0
-156 -162 0
-157 -162 0
-154 -155 156 157 162 0
154 -163 0
155 -163 0
156 -163 0
-154 -155 -156 163 0
-103 164 0
-105 164 0
-126 164 0
-128 164 0
-149 164 0
-151 164 0
-158 164 0
-160 164 0
-161 164 0
-162 164 0
-163 164 0
103 105 126 128 149 151 158 160 161 162 163 -164 0
84 -165 0
164 -165 0
-84 -164 165 0
-9 166 0
9 166 0
3 -167 0
166 -167 0
-3 -166 167 0
-167 168 0
3 168 0
167 -3 -168 0
168 -169 0
-18 -169 0
-168 18 169 0
168 -170 0
24 -170 0
25 -170 0
-168 -24 -25 170 0
168 -171 0
24 -171 0
-25 -171 0
27 -171 0
60 -171 0
-62 -171 0
-168 -24 25 -27 -60 62 171 0
168 -172 0
24 -172 0
-25 -172 0
27 -172 0
60 -172 0
62 -172 0
-168 -24 25 -27 -60 -62 172 0
168 -173 0
24 -173 0
-25 -173 0
27 -173 0
-60 -173 0
-168 -24 25 -27 60 173 0
168 -174 0
28 -174 0
-168 -28 174 0
168 -175 0
-28 -175 0
-168 28 175 0
-174 176 0
-175 176 0
174 175 -176 0
-31 177 0
-33 177 0
-36 177 0
-38 177 0
-40 177 0
-42 177 0
-44 177 0
-46 177 0
31 33 36 38 40 42 44 46 -177 0
176 -178 0
177 -178 0
-176 -177 178 0
176 -179 0
29 -179 0
30 -179 0
-32 -179 0
34 -179 0
-35 -179 0
37 -179 0
-43 -179 0
-45 -179 0
56 -179 0
-176 -29 -30 32 -34 35 -37 43 45 -56 179 0
-50 180 0
-51 180 0
50 51 -180 0
176 -181 0
180 -181 0
-176 -180 181 0
-178 182 0
-179 182 0
-181 182 0
178 179 181 -182 0
182 -183 0
24 -183 0
-25 -183 0
-27 -183 0
58 -183 0
-182 -24 25 27 -58 183 0
-171 184 0
-172 184 0
-173 184 0
-183 184 0
171 172 173 183 -184 0
184 -185 0
65 -185 0
66 -185 0
-184 -65 -66 185 0
184 -186 0
65 -186 0
-66 -186 0
-184 -65 66 186 0
-170 187 0
-185 187 0
-186 187 0
170 185 186 -187 0
187 -188 0
18 -188 0
22 -188 0
69 -188 0
71 -188 0
72 -188 0
-187 -18 -22 -69 -71 -72 188 0
187 -189 0
18 -189 0
22 -189 0
69 -189 0
71 -189 0
-72 -189 0
75 -189 0
-187 -18 -22 -69 -71 72 -75 189 0
-188 190 0
-189 190 0
188 189 -190 0
-79 191 0
-80 191 0
79 80 -191 0
190 -192 0
191 -192 0
-190 -191 192 0
-169 193 0
-192 193 0
169 192 -193 0
2 -194 0
193 -194 0
-2 -193 194 0
-2 -195 0
168 -195 0
2 -168 195 0
-194 196 0
-195 196 0
194 195 -196 0
196 -197 0
85 -197 0
-86 -197 0
104 -197 0
-196 -85 86 -104 197 0
196 -198 0
85 -198 0
-86 -198 0
-104 -198 0
-196 -85 86 104 198 0
196 -199 0
-87 -199 0
-196 87 199 0
196 -200 0
95 -200 0
-96 -200 0
-196 -95 96 200 0
-99 201 0
-100 201 0
99 100 -201 0
196 -202 0
201 -202 0
-196 -201 202 0
-199 203 0
-200 203 0
-202 203 0
199 200 202 -203 0
203 -204 0
85 -204 0
86 -204 0
101 -204 0
-102 -204 0
-203 -85 -86 -101 102 204 0
-198 205 0
-204 205 0
198 204 -205 0
205 -206 0
108 -206 0
-109 -206 0
127 -206 0
-205 -108 109 -127 206 0
205 -207 0
-110 -207 0
-205 110 207 0
205 -208 0
118 -208 0
-119 -208 0
-205 -118 119 208 0
-122 209 0
-123 209 0
122 123 -209 0
205 -210 0
209 -210 0
-205 -209 210 0
-207 211 0
-208 211 0
-210 211 0
207 208 210 -211 0
211 -212 0
108 -212 0
109 -212 0
124 -212 0
125 -212 0
-211 -108 -109 -124 -125 212 0
205 -213 0
108 -213 0
-109 -213 0
-127 -213 0
-205 -108 109 127 213 0
211 -214 0
108 -214 0
109 -214 0
124 -214 0
-125 -214 0
-211 -108 -109 -124 125 214 0
-213 215 0
-214 215 0
213 214 -215 0
215 -216 0
131 -216 0
-132 -216 0
150 -216 0
-215 -131 132 -150 216 0
215 -217 0
-133 -217 0
-215 133 217 0
215 -218 0
141 -218 0
-142 -218 0
-215 -141 142 218 0
-145 219 0
-146 219 0
145 146 -219 0
215 -220 0
219 -220 0
-215 -219 220 0
-217 221 0
-218 221 0
-220 221 0
217 218 220 -221 0
221 -222 0
131 -222 0
132 -222 0
147 -222 0
148 -222 0
-221 -131 -132 -147 -148 222 0
215 -223 0
131 -223 0
-132 -223 0
-150 -223 0
-215 -131 132 150 223 0
221 -224 0
131 -224 0
132 -224 0
147 -224 0
-148 -224 0
-221 -131 -132 -147 148 224 0
-223 225 0
-224 225 0
223 224 -225 0
-158 226 0
-160 226 0
158 160 -226 0
225 -227 0
226 -227 0
-225 -226 227 0
225 -228 0
154 -228 0
155 -228 0
-156 -228 0
-157 -228 0
-225 -154 -155 156 157 228 0
225 -229 0
154 -229 0
155 -229 0
156 -229 0
-225 -154 -155 -156 229 0
225 -230 0
154 -230 0
-155 -230 0
-159 -230 0
-225 -154 155 159 230 0
-227 231 0
-228 231 0
-229 231 0
-230 231 0
227 228 229 230 -231 0
-158 232 0
-160 232 0
-161 232 0
-162 232 0
-163 232 0
158 160 161 162 163 -232 0
231 -233 0
232 -233 0
-231 -232 233 0
203 -234 0
85 -234 0
86 -234 0
101 -234 0
102 -234 0
-203 -85 -86 -101 -102 234 0
-197 235 0
-206 235 0
-212 235 0
-216 235 0
-222 235 0
-233 235 0
-234 235 0
197 206 212 216 222 233 234 -235 0
-9 236 0
9 236 0
3 -237 0
236 -237 0
-3 -236 237 0
-237 238 0
3 238 0
237 -3 -238 0
238 -239 0
-18 -239 0
-238 18 239 0
238 -240 0
24 -240 0
25 -240 0
-238 -24 -25 240 0
238 -241 0
24 -241 0
-25 -241 0
27 -241 0
60 -241 0
-62 -241 0
-238 -24 25 -27 -60 62 241 0
238 -242 0
24 -242 0
-25 -242 0
27 -242 0
60 -242 0
62 -242 0
-238 -24 25 -27 -60 -62 242 0
238 -243 0
24 -243 0
-25 -243 0
27 -243 0
-60 -243 0
-238 -24 25 -27 60 243 0
238 -244 0
28 -244 0
-238 -28 244 0
238 -245 0
-28 -245 0
-238 28 245 0
-244 246 0
-245 246 0
244 245 -246 0
-31 247 0
-33 247 0
-36 247 0
-38 247 0
-40 247 0
-42 247 0
-44 247 0
-46 247 0
31 33 36 38 40 42 44 46 -247 0
246 -248 0
247 -248 0
-246 -247 248 0
246 -249 0
29 -249 0
30 -249 0
-32 -249 0
34 -249 0
-35 -249 0
37 -249 0
-43 -249 0
-45 -249 0
56 -249 0
-246 -29 -30 32 -34 35 -37 43 45 -56 249 0
246 -250 0
180 -250 0
-246 -180 250 0
-248 251 0
-249 251 0
-250 251 0
248 249 250 -251 0
251 -252 0
24 -252 0
-25 -252 0
-27 -252 0
58 -252 0
-251 -24 25 27 -58 252 0
-241 253 0
-242 253 0
-243 253 0
-252 253 0
241 242 243 252 -253 0
253 -254 0
65 -254 0
66 -254 0
-253 -65 -66 254 0
253 -255 0
65 -255 0
-66 -255 0
-253 -65 66 255 0
-240 256 0
-254 256 0
-255 256 0
240 254 255 -256 0
256 -257 0
18 -257 0
22 -257 0
69 -257 0
71 -257 0
72 -257 0
-256 -18 -22 -69 -71 -72 257 0
256 -258 0
18 -258 0
22 -258 0
69 -258 0
71 -258 0
-72 -258 0
75 -258 0
-256 -18 -22 -69 -71 72 -75 258 0
-257 259 0
-258 259 0
257 258 -259 0
259 -260 0
191 -260 0
-259 -191 260 0
-239 261 0
-260 261 0
239 260 -261 0
2 -262 0
261 -262 0
-2 -261 262 0
-2 -263 0
238 -263 0
2 -238 263 0
-262 264 0
-263 264 0
262 263 -264 0
264 -265 0
85 -265 0
-86 -265 0
104 -265 0
-264 -85 86 -104 265 0
264 -266 0
85 -266 0
-86 -266 0
-104 -266 0
-264 -85 86 104 266 0
264 -267 0
-87 -267 0
-264 87 267 0
264 -268 0
95 -268 0
-96 -268 0
-264 -95 96 268 0
264 -269 0
201 -269 0
-264 -201 269 0
-267 270 0
-268 270 0
-269 270 0
267 268 269 -270 0
270 -271 0
85 -271 0
86 -271 0
101 -271 0
-102 -271 0
-270 -85 -86 -101 102 271 0
-266 272 0
-271 272 0
266 271 -272 0
272 -273 0
108 -273 0
-109 -273 0
127 -273 0
-272 -108 109 -127 273 0
272 -274 0
-110 -274 0
-272 110 274 0
272 -275 0
118 -275 0
-119 -275 0
-272 -118 119 275 0
272 -276 0
209 -276 0
-272 -209 276 0
-274 277 0
-275 277 0
-276 277 0
274 275 276 -277 0
277 -278 0
108 -278 0
109 -278 0
124 -278 0
125 -278 0
-277 -108 -109 -124 -125 278 0
272 -279 0
108 -279 0
-109 -279 0
-127 -279 0
-272 -108 109 127 279 0
277 -280 0
108 -280 0
109 -280 0
124 -280 0
-125 -280 0
-277 -108 -109 -124 125 280 0
-279 281 0
-280 281 0
279 280 -281 0
281 -282 0
131 -282 0
-132 -282 0
150 -282 0
-281 -131 132 -150 282 0
281 -283 0
-133 -283 0
-281 133 283 0
281 -284 0
141 -284 0
-142 -284 0
-281 -141 142 284 0
281 -285 0
219 -285 0
-281 -219 285 0
-283 286 0
-284 286 0
-285 286 0
283 284 285 -286 0
286 -287 0
131 -287 0
132 -287 0
147 -287 0
148 -287 0
-286 -131 -132 -147 -148 287 0
281 -288 0
131 -288 0
-132 -288 0
-150 -288 0
-281 -131 132 150 288 0
286 -289 0
131 -289 0
132 -289 0
147 -289 0
-148 -289 0
-286 -131 -132 -147 148 289 0
-288 290 0
-289 290 0
288 289 -290 0
-158 291 0
-160 291 0
158 160 -291 0
290 -292 0
291 -292 0
-290 -291 292 0
290 -293 0
154 -293 0
155 -293 0
-156 -293 0
-157 -293 0
-290 -154 -155 156 157 293 0
290 -294 0
154 -294 0
155 -294 0
156 -294 0
-290 -154 -155 -156 294 0
290 -295 0
154 -295 0
-155 -295 0
-159 -295 0
-290 -154 155 159 295 0
-292 296 0
-293 296 0
-294 296 0
-295 296 0
292 293 294 295 -296 0
296 -297 0
232 -297 0
-296 -232 297 0
270 -298 0
85 -298 0
86 -298 0
101 -298 0
102 -298 0
-270 -85 -86 -101 -102 298 0
-265 299 0
-273 299 0
-278 299 0
-282 299 0
-287 299 0
-297 299 0
-298 299 0
265 273 278 282 287 297 298 -299 0
302 -304 0
303 -304 0
-302 -303 304 0
302 -305 0
-303 -305 0
-302 303 305 0
302 306 0
-304 306 0
-305 306 0
-302 304 305 -306 0
-307 308 0
307 308 0
301 -309 0
306 -309 0
308 -309 0
-301 -306 -308 309 0
-301 -310 0
306 -310 0
301 -306 310 0
-309 311 0
-310 311 0
309 310 -311 0
-312 313 0
312 313 0
-314 315 0
314 315 0
317 -319 0
-318 -319 0
-317 318 319 0
317 320 0
-319 320 0
-317 319 -320 0
-321 322 0
321 322 0
322 -324 0
323 -324 0
-322 -323 324 0
-326 327 0
326 327 0
327 -329 0
-328 -329 0
-327 328 329 0
327 -331 0
328 -331 0
330 -331 0
-327 -328 -330 331 0
327 -334 0
328 -334 0
-330 -334 0
332 -334 0
333 -334 0
-327 -328 330 -332 -333 334 0
327 -336 0
328 -336 0
-330 -336 0
332 -336 0
-333 -336 0
-335 -336 0
-327 -328 330 -332 333 335 336 0
327 -338 0
328 -338 0
-330 -338 0
-332 -338 0
-337 -338 0
-327 -328 330 332 337 338 0
327 -340 0
328 -340 0
-330 -340 0
-332 -340 0
337 -340 0
339 -340 0
-327 -328 330 332 -337 -339 340 0
327 -342 0
328 -342 0
-330 -342 0
332 -342 0
-333 -342 0
335 -342 0
341 -342 0
-327 -328 330 -332 333 -335 -341 342 0
327 -344 0
328 -344 0
-330 -344 0
332 -344 0
-333 -344 0
335 -344 0
-341 -344 0
343 -344 0
-327 -328 330 -332 333 -335 341 -343 344 0
-345 346 0
345 346 0
327 -348 0
328 -348 0
-330 -348 0
-332 -348 0
337 -348 0
-339 -348 0
346 -348 0
347 -348 0
-327 -328 330 332 -337 339 -346 -347 348 0
327 -349 0
328 -349 0
-330 -349 0
-332 -349 0
337 -349 0
-339 -349 0
346 -349 0
-347 -349 0
-327 -328 330 332 -337 339 -346 347 349 0
350 -352 0
351 -352 0
-350 -351 352 0
350 -353 0
-351 -353 0
-350 351 353 0
350 354 0
-352 354 0
-353 354 0
-350 352 353 -354 0
327 -355 0
328 -355 0
-330 -355 0
332 -355 0
-333 -355 0
335 -355 0
-341 -355 0
-343 -355 0
354 -355 0
-327 -328 330 -332 333 -335 341 343 -354 355 0
-329 356 0
-331 356 0
-334 356 0
-336 356 0
-338 356 0
-340 356 0
-342 356 0
-344 356 0
-348 356 0
-349 356 0
-355 356 0
329 331 334 336 338 340 342 344 348 349 355 -356 0
322 -357 0
-323 -357 0
-325 -357 0
356 -357 0
-322 323 325 -356 357 0
322 -359 0
-323 -359 0
325 -359 0
-358 -359 0
-322 323 -325 358 359 0
322 -361 0
-323 -361 0
325 -361 0
358 -361 0
-360 -361 0
-322 323 -325 -358 360 361 0
322 -362 0
-323 -362 0
325 -362 0
358 -362 0
360 -362 0
-322 323 -325 -358 -360 362 0
-357 363 0
-359 363 0
-361 363 0
-362 363 0
357 359 361 362 -363 0
363 -365 0
364 -365 0
-363 -364 365 0
363 -366 0
-364 -366 0
-363 364 366 0
-324 367 0
-365 367 0
-366 367 0
324 365 366 -367 0
-368 369 0
368 369 0
316 -371 0
320 -371 0
367 -371 0
369 -371 0
370 -371 0
-316 -320 -367 -369 -370 371 0
-372 373 0
372 373 0
316 -374 0
320 -374 0
367 -374 0
369 -374 0
-370 -374 0
373 -374 0
-316 -320 -367 -369 370 -373 374 0
-371 375 0
-374 375 0
371 374 -375 0
375 -377 0
376 -377 0
-375 -376 377 0
375 -378 0
-376 -378 0
-375 376 378 0
316 379 0
-377 379 0
-378 379 0
-316 377 378 -379 0
300 -380 0
311 -380 0
313 -380 0
315 -380 0
379 -380 0
-300 -311 -313 -315 -379 380 0
-300 -381 0
311 -381 0
313 -381 0
315 -381 0
300 -311 -313 -315 381 0
-380 382 0
-381 382 0
380 381 -382 0
-307 383 0
307 383 0
301 -384 0
383 -384 0
-301 -383 384 0
-384 385 0
301 385 0
384 -301 -385 0
385 -386 0
-316 -386 0
-385 316 386 0
385 -387 0
322 -387 0
323 -387 0
-385 -322 -323 387 0
385 -388 0
322 -388 0
-323 -388 0
325 -388 0
358 -388 0
-360 -388 0
-385 -322 323 -325 -358 360 388 0
385 -389 0
322 -389 0
-323 -389 0
325 -389 0
358 -389 0
360 -389 0
-385 -322 323 -325 -358 -360 389 0
385 -390 0
322 -390 0
-323 -390 0
325 -390 0
-358 -390 0
-385 -322 323 -325 358 390 0
385 -391 0
326 -391 0
-385 -326 391 0
385 -392 0
-326 -392 0
-385 326 392 0
-391 393 0
-392 393 0
391 392 -393 0
-329 394 0
-331 394 0
-334 394 0
-336 394 0
-338 394 0
-340 394 0
-342 394 0
-344 394 0
329 331 334 336 338 340 342 344 -394 0
393 -395 0
394 -395 0
-393 -394 395 0
393 -396 0
327 -396 0
328 -396 0
-330 -396 0
332 -396 0
-333 -396 0
335 -396 0
-341 -396 0
-343 -396 0
354 -396 0
-393 -327 -328 330 -332 333 -335 341 343 -354 396 0
-348 397 0
-349 397 0
348 349 -397 0
393 -398 0
397 -398 0
-393 -397 398 0
-395 399 0
-396 399 0
-398 399 0
395 396 398 -399 0
399 -400 0
322 -400 0
-323 -400 0
-325 -400 0
356 -400 0
-399 -322 323 325 -356 400 0
-388 401 0
-389 401 0
-390 401 0
-400 401 0
388 389 390 400 -401 0
401 -402 0
363 -402 0
364 -402 0
-401 -363 -364 402 0
401 -403 0
363 -403 0
-364 -403 0
-401 -363 364 403 0
-387 404 0
-402 404 0
-403 404 0
387 402 403 -404 0
404 -405 0
316 -405 0
320 -405 0
367 -405 0
369 -405 0
370 -405 0
-404 -316 -320 -367 -369 -370 405 0
404 -406 0
316 -406 0
320 -406 0
367 -406 0
369 -406 0
-370 -406 0
373 -406 0
-404 -316 -320 -367 -369 370 -373 406 0
-405 407 0
-406 407 0
405 406 -407 0
-377 408 0
-378 408 0
377 378 -408 0
407 -409 0
408 -409 0
-407 -408 409 0
-386 410 0
-409 410 0
386 409 -410 0
300 -411 0
410 -411 0
-300 -410 411 0
-300 -412 0
385 -412 0
300 -385 412 0
-411 413 0
-412 413 0
411 412 -413 0
-307 414 0
307 414 0
301 -415 0
414 -415 0
-301 -414 415 0
-415 416 0
301 416 0
415 -301 -416 0
416 -417 0
-316 -417 0
-416 316 417 0
416 -418 0
322 -418 0
323 -418 0
-416 -322 -323 418 0
416 -419 0
322 -419 0
-323 -419 0
325 -419 0
358 -419 0
-360 -419 0
-416 -322 323 -325 -358 360 419 0
416 -420 0
322 -420 0
-323 -420 0
325 -420 0
358 -420 0
360 -420 0
-416 -322 323 -325 -358 -360 420 0
416 -421 0
322 -421 0
-323 -421 0
325 -421 0
-358 -421 0
-416 -322 323 -325 358 421 0
416 -422 0
326 -422 0
-416 -326 422 0
416 -423 0
-326 -423 0
-416 326 423 0
-422 424 0
-423 424 0
422 423 -424 0
-329 425 0
-331 425 0
-334 425 0
-336 425 0
-338 425 0
-340 425 0
-342 425 0
-344 425 0
329 331 334 336 338 340 342 344 -425 0
424 -426 0
425 -426 0
-424 -425 426 0
424 -427 0
327 -427 0
328 -427 0
-330 -427 0
332 -427 0
-333 -427 0
335 -427 0
-341 -427 0
-343 -427 0
354 -427 0
-424 -327 -328 330 -332 333 -335 341 343 -354 427 0
424 -428 0
397 -428 0
-424 -397 428 0
-426 429 0
-427 429 0
-428 429 0
426 427 428 -429 0
429 -430 0
322 -430 0
-323 -430 0
-325 -430 0
356 -430 0
-429 -322 323 325 -356 430 0
-419 431 0
-420 431 0
-421 431 0
-430 431 0
419 420 421 430 -431 0
431 -432 0
363 -432 0
364 -432 0
-431 -363 -364 432 0
431 -433 0
363 -433 0
-364 -433 0
-431 -363 364 433 0
-418 434 0
-432 434 0
-433 434 0
418 432 433 -434 0
434 -435 0
316 -435 0
320 -435 0
367 -435 0
369 -435 0
370 -435 0
-434 -316 -320 -367 -369 -370 435 0
434 -436 0
316 -436 0
320 -436 0
367 -436 0
369 -436 0
-370 -436 0
373 -436 0
-434 -316 -320 -367 -369 370 -373 436 0
-435 437 0
-436 437 0
435 436 -437 0
437 -438 0
408 -438 0
-437 -408 438 0
-417 439 0
-438 439 0
417 438 -439 0
300 -440 0
439 -440 0
-300 -439 440 0
-300 -441 0
416 -441 0
300 -416 441 0
-440 442 0
-441 442 0
440 441 -442 0
-413 -235 -443 0
413 235 -443 0
-413 235 443 0
413 -235 443 0
-442 -299 -444 0
442 299 -444 0
-442 299 444 0
442 -299 444 0
-443 -445 0
-444 -445 0
382 -445 0
443 444 -382 445 0
-165 445 0
